843224
15,81,57,60,66,34,41,96,26,1,63,4,2,84,88,7,52,90,43,54,71,35,49,87,98,79,67,62,12,36,47,0,69,73,31,59,30,61,92,48,55,68,74,5,40,17,76,9,29,95,20,19,8,32,56,46,94,72,24,77,78,28,50,39,93,25,16,11,18,23,42,58,89,70,33,45,27,22,10,97,53,64,51,21,83,91,38,13,6,65,3,80,85,44,86,37,75,82,14
